Distance All: 438.761
Capacity Violation: 0
Time Violation: 0
Route Used Num: 3
Visited Customer Num: 25

Route 0 : 
Total Distance: 0	Total Demand: 0	Time Violation: 0	Customer Number: 0	Nodes: 0 0 
Route 1 : 
Total Distance: 0	Total Demand: 0	Time Violation: 0	Customer Number: 0	Nodes: 0 0 
Route 2 : 
Total Distance: 0	Total Demand: 0	Time Violation: 0	Customer Number: 0	Nodes: 0 0 
Route 3 : 
Total Distance: 0	Total Demand: 0	Time Violation: 0	Customer Number: 0	Nodes: 0 0 
Route 4 : 
Total Distance: 0	Total Demand: 0	Time Violation: 0	Customer Number: 0	Nodes: 0 0 
Route 5 : 
Total Distance: 0	Total Demand: 0	Time Violation: 0	Customer Number: 0	Nodes: 0 0 
Route 6 : 
Total Distance: 0	Total Demand: 0	Time Violation: 0	Customer Number: 0	Nodes: 0 0 
Route 7 : 
Total Distance: 0	Total Demand: 0	Time Violation: 0	Customer Number: 0	Nodes: 0 0 
Route 8 : 
Total Distance: 0	Total Demand: 0	Time Violation: 0	Customer Number: 0	Nodes: 0 0 
Route 9 : 
Total Distance: 0	Total Demand: 0	Time Violation: 0	Customer Number: 0	Nodes: 0 0 
Route 10 : 
Total Distance: 0	Total Demand: 0	Time Violation: 0	Customer Number: 0	Nodes: 0 0 
Route 11 : 
Total Distance: 0	Total Demand: 0	Time Violation: 0	Customer Number: 0	Nodes: 0 0 
Route 12 : 
Total Distance: 129.162	Total Demand: 105	Time Violation: 0	Customer Number: 7	Nodes: 0 12 21 23 22 4 25 24 0 
Route 13 : 
Total Distance: 161.682	Total Demand: 107	Time Violation: 0	Customer Number: 9	Nodes: 0 2 15 14 16 11 19 8 18 6 0 
Route 14 : 
Total Distance: 0	Total Demand: 0	Time Violation: 0	Customer Number: 0	Nodes: 0 0 
Route 15 : 
Total Distance: 0	Total Demand: 0	Time Violation: 0	Customer Number: 0	Nodes: 0 0 
Route 16 : 
Total Distance: 0	Total Demand: 0	Time Violation: 0	Customer Number: 0	Nodes: 0 0 
Route 17 : 
Total Distance: 0	Total Demand: 0	Time Violation: 0	Customer Number: 0	Nodes: 0 0 
Route 18 : 
Total Distance: 0	Total Demand: 0	Time Violation: 0	Customer Number: 0	Nodes: 0 0 
Route 19 : 
Total Distance: 0	Total Demand: 0	Time Violation: 0	Customer Number: 0	Nodes: 0 0 
Route 20 : 
Total Distance: 0	Total Demand: 0	Time Violation: 0	Customer Number: 0	Nodes: 0 0 
Route 21 : 
Total Distance: 147.917	Total Demand: 120	Time Violation: 0	Customer Number: 9	Nodes: 0 1 3 9 20 10 7 17 5 13 0 
Route 22 : 
Total Distance: 0	Total Demand: 0	Time Violation: 0	Customer Number: 0	Nodes: 0 0 
Route 23 : 
Total Distance: 0	Total Demand: 0	Time Violation: 0	Customer Number: 0	Nodes: 0 0 
Route 24 : 
Total Distance: 0	Total Demand: 0	Time Violation: 0	Customer Number: 0	Nodes: 0 0 
================================================================================= 
Execution Time: 16.057 s 
